\* Problem: Unknown *\

Maximize
 obj: + xp_0_0 + xp_1_0 + xp_1_1 + xp_2_0 + xp_2_1 + xp_3_0 + xp_3_1
 + xp_3_2 + xp_4_0 + xp_5_0 + xp_6_0 + xp_7_0 + xp_8_0 + xp_9_0 + xp_9_1
 + xp_10_0 + xp_11_0 + xp_11_1 + xp_12_0 + xp_12_1 + xp_13_0 + xp_13_1
 + xp_13_2 + xp_14_0 + xp_14_1 + xp_15_0 + xp_16_0 + xp_17_0 + xp_17_1
 + xp_18_0 + xp_18_1 + xp_18_2 + xp_18_3 + xp_19_0 + xp_19_1 + xp_20_0
 + xp_21_0 + xp_22_0 + xp_22_1 + xp_23_0 + xp_24_0 + xp_24_1 + xp_24_2
 + xp_24_3 + xp_25_0 + xp_26_0 + xp_26_1 + xp_26_2 + xp_27_0 + xp_27_1
 + xp_28_0 + xp_28_1 + xp_29_0 + xp_30_0 + xp_30_1 + xp_30_2 + xp_31_0
 + xp_32_0 + xp_32_1 + xp_33_0 + xp_34_0 + xp_34_1 + xp_35_0 + xp_36_0
 + xp_37_0 + xp_38_0 + xp_38_1 + xp_39_0 + xp_40_0 + xp_40_1 + xp_40_2
 + xp_41_0 + xp_41_1 + xp_42_0 + xp_42_1 + xp_42_2 + xp_43_0 + xp_44_0
 + xp_44_1 + xp_45_0 + xp_45_1 + xp_46_0 + xp_47_0 + xp_48_0 + xp_49_0
 + xp_50_0 + xp_50_1 + xp_51_0 + xp_52_0 + xp_53_0 + xp_53_1 + xp_54_0
 + xp_55_0 + xp_56_0 + xp_57_0 + xp_57_1 + xp_58_0 + xp_58_1 + xp_58_2
 + xp_59_0 + xp_60_0 + xp_60_1 + xp_61_0 + xp_61_1 + xp_62_0 + xp_63_0
 + xp_63_1 + xp_64_0 + xp_65_0 + xp_66_0 + xp_67_0 + xp_67_1 + xp_68_0
 + xp_68_1 + xp_68_2 + xp_69_0 + xp_70_0 + xp_71_0 + xp_72_0 + xp_73_0
 + xp_74_0 + xp_74_1 + xp_75_0 + xp_76_0 + xp_77_0 + xp_77_1 + xp_78_0
 + xp_78_1 + xp_78_2 + xp_78_3 + xp_79_0 + xp_79_1 + xp_80_0 + xp_80_1
 + xp_81_0 + xp_81_1 + xp_81_2 + xp_81_3 + xp_82_0 + xp_82_1 + xp_83_0
 + xp_83_1 + xp_84_0 + xp_85_0 + xp_85_1 + xp_85_2 + xp_86_0 + xp_87_0
 + xp_88_0 + xp_88_1 + xp_89_0 + xp_90_0 + xp_90_1 + xp_90_2 + xp_91_0
 + xp_91_1 + xp_91_2 + xp_92_0 + xp_92_1 + xp_92_2 + xp_93_0 + xp_94_0
 + xp_94_1 + xp_94_2 + xp_94_3 + xp_95_0 + xp_95_1 + xp_95_2 + xp_96_0
 + xp_96_1 + xp_97_0 + xp_98_0 + xp_98_1 + xp_98_2 + xp_98_3 + xp_99_0
 + xp_99_1 + xp_99_2 + xp_100_0 + xp_101_0 + xp_102_0 + xp_103_0
 + xp_104_0 + xp_104_1 + xp_105_0 + xp_105_1 + xp_106_0 + xp_106_1
 + xp_106_2 + xp_107_0 + xp_108_0 + xp_108_1 + xp_108_2 + xp_109_0
 + xp_109_1 + xp_110_0 + xp_111_0 + xp_111_1 + xp_112_0 + xp_112_1
 + xp_113_0 + xp_114_0 + xp_115_0 + xp_115_1 + xp_116_0 + xp_116_1
 + xp_117_0 + xp_118_0 + xp_119_0 + xp_119_1 + xp_119_2 + xp_120_0
 + xp_120_1 + xp_120_2 + xp_121_0 + xp_122_0 + xp_123_0 + xp_123_1
 + xp_124_0 + xp_124_1 + xp_125_0 + xp_125_1 + xp_126_0 + xp_126_1
 + xp_126_2 + xp_126_3 + xp_127_0 + xp_127_1 + xp_128_0 + xp_128_1
 + xp_128_2 + xp_129_0 + xp_129_1 + xp_130_0 + xp_131_0 + xp_131_1
 + xp_131_2

Subject To
 r_1: + xp_128_2 + xp_128_1 + xp_123_1 + xp_122_0 + xp_121_0 + xp_108_1
 + xp_107_0 + xp_78_3 + xp_67_1 + xp_57_1 + xp_40_2 + xp_40_1 + xp_25_0
 + xp_22_1 + xp_18_3 + xp_18_2 + xp_18_1 + xp_16_0 + xp_13_2 + xp_13_1
 + xp_4_0 <= 38762.5113739763
 r_2: + xp_131_2 + xp_131_1 + xp_127_1 + xp_126_1 + xp_120_1 + xp_120_0
 + xp_94_2 + xp_94_1 + xp_93_0 + xp_90_1 + xp_85_2 + xp_85_1 + xp_85_0
 + xp_77_1 + xp_75_0 + xp_74_1 + xp_71_0 + xp_66_0 + xp_65_0 + xp_61_1
 + xp_55_0 + xp_52_0 + xp_48_0 + xp_42_2 + xp_42_1 + xp_38_1 + xp_32_0
 + xp_28_1 + xp_28_0 + xp_24_3 + xp_24_2 + xp_24_0 + xp_19_1 + xp_19_0
 + xp_12_1 + xp_1_1 <= 34767.401189227
 r_3: + xp_126_3 + xp_124_1 + xp_114_0 + xp_106_2 + xp_105_1 + xp_98_3
 + xp_95_1 + xp_94_3 + xp_92_2 + xp_91_2 + xp_85_2 + xp_83_1 + xp_76_0
 + xp_68_2 + xp_58_1 + xp_41_1 + xp_34_0 + xp_30_2 + xp_26_2 + xp_24_3
 <= 36778.2691092862
 r_4: + xp_119_2 + xp_117_0 + xp_111_1 + xp_104_1 + xp_95_2 + xp_95_0
 + xp_91_1 + xp_91_0 + xp_88_1 + xp_84_0 + xp_82_1 + xp_81_3 + xp_81_2
 + xp_79_1 + xp_79_0 + xp_46_0 + xp_44_1 + xp_43_0 + xp_40_2 + xp_40_1
 + xp_40_0 + xp_34_1 + xp_27_1 + xp_18_3 + xp_3_2 <= 35421.6335540839
 r_5: + xp_130_0 + xp_119_2 + xp_111_1 + xp_104_1 + xp_99_0 + xp_88_1
 + xp_82_1 + xp_81_3 + xp_81_2 + xp_44_1 + xp_27_1 + xp_18_3 + xp_7_0
 + xp_3_2 + xp_2_0 <= 36778.2691092862
 r_6: + xp_126_3 + xp_126_2 + xp_119_0 + xp_114_0 + xp_95_1 + xp_92_2
 + xp_92_1 + xp_91_2 + xp_83_1 + xp_83_0 + xp_81_0 + xp_70_0 + xp_68_2
 + xp_68_1 + xp_58_2 + xp_58_1 + xp_53_0 + xp_45_0 + xp_34_0 + xp_32_1
 + xp_30_2 + xp_30_1 + xp_18_1 <= 38762.5113739763
 r_7: + xp_119_1 + xp_112_1 + xp_104_0 + xp_88_0 + xp_82_0 + xp_81_1
 + xp_78_2 + xp_53_1 + xp_50_1 + xp_45_1 + xp_44_0 + xp_27_0 + xp_18_2
 + xp_18_0 + xp_3_1 <= 35421.6335540839
 r_8: + xp_131_2 + xp_131_1 + xp_127_1 + xp_126_1 + xp_120_1 + xp_120_0
 + xp_118_0 + xp_103_0 + xp_94_2 + xp_94_1 + xp_90_1 + xp_77_1 + xp_74_1
 + xp_71_0 + xp_61_1 + xp_55_0 + xp_42_2 + xp_42_1 + xp_38_1 + xp_32_0
 + xp_24_3 + xp_24_2 + xp_24_0 + xp_12_1 + xp_1_1 <= 38762.5113739763
 r_9: + xp_131_0 + xp_127_0 + xp_123_1 + xp_122_0 + xp_120_2 + xp_108_1
 + xp_78_3 + xp_77_0 + xp_67_1 + xp_57_1 + xp_42_0 + xp_33_0 + xp_32_1
 + xp_24_1 <= 39327.3986152324
 r_10: + xp_112_1 + xp_111_1 + xp_106_0 + xp_99_0 + xp_98_0 + xp_94_1
 + xp_88_1 + xp_88_0 + xp_85_0 + xp_78_2 + xp_50_1 + xp_26_0 + xp_24_0
 + xp_8_0 + xp_7_0 + xp_3_2 + xp_3_1 + xp_2_0 <= 38762.5113739763
 r_11: + xp_119_0 + xp_112_0 + xp_111_0 + xp_95_1 + xp_91_2 + xp_81_0
 + xp_78_3 + xp_78_1 + xp_78_0 + xp_59_0 + xp_53_0 + xp_50_0 + xp_49_0
 + xp_45_0 + xp_34_0 + xp_18_1 + xp_4_0 + xp_3_0 <= 36088.8175494917
 r_12: + xp_129_1 + xp_128_1 + xp_128_0 + xp_123_0 + xp_119_1 + xp_117_0
 + xp_112_1 + xp_111_1 + xp_108_2 + xp_101_0 + xp_95_0 + xp_91_1
 + xp_82_1 + xp_82_0 + xp_81_3 + xp_81_1 + xp_80_1 + xp_79_1 + xp_78_2
 + xp_78_0 + xp_73_0 + xp_63_1 + xp_60_1 + xp_50_1 + xp_46_0 + xp_45_1
 + xp_44_1 + xp_44_0 + xp_40_1 + xp_40_0 + xp_18_2 + xp_18_0 + xp_17_1
 + xp_15_0 + xp_14_0 + xp_13_1 + xp_13_0 + xp_9_0 <= 35516.1437016826
 r_13: + xp_129_0 + xp_128_2 + xp_123_1 + xp_120_2 + xp_120_1 + xp_119_2
 + xp_109_1 + xp_100_0 + xp_96_1 + xp_95_2 + xp_91_0 + xp_90_0 + xp_81_2
 + xp_80_0 + xp_79_0 + xp_68_0 + xp_63_0 + xp_60_0 + xp_53_1 + xp_40_2
 + xp_34_1 + xp_31_0 + xp_30_0 + xp_18_3 + xp_17_0 + xp_13_2 + xp_9_1
 <= 36088.8175494917
 r_14: + xp_131_2 + xp_131_1 + xp_131_0 + xp_126_3 + xp_126_2 + xp_125_1
 + xp_125_0 + xp_124_1 + xp_124_0 + xp_115_1 + xp_115_0 + xp_106_2
 + xp_106_1 + xp_99_2 + xp_99_1 + xp_98_3 + xp_98_2 + xp_98_1 + xp_94_3
 + xp_94_2 + xp_94_0 + xp_92_2 + xp_92_1 + xp_86_0 + xp_85_2 + xp_85_1
 + xp_77_1 + xp_77_0 + xp_68_2 + xp_68_1 + xp_65_0 + xp_58_2 + xp_58_1
 + xp_56_0 + xp_51_0 + xp_41_1 + xp_41_0 + xp_38_1 + xp_38_0 + xp_35_0
 + xp_32_1 + xp_30_2 + xp_30_1 + xp_26_2 + xp_26_1 + xp_24_3 + xp_24_2
 + xp_24_1 + xp_20_0 + xp_19_1 + xp_19_0 + xp_12_1 + xp_12_0 + xp_2_1
 + xp_0_0 <= 35421.6335540839
 r_15: + xp_131_2 + xp_131_0 + xp_126_3 + xp_126_2 + xp_125_0 + xp_124_1
 + xp_124_0 + xp_120_2 + xp_120_1 + xp_116_0 + xp_115_0 + xp_109_1
 + xp_99_2 + xp_98_3 + xp_98_1 + xp_96_1 + xp_94_3 + xp_94_0 + xp_92_2
 + xp_92_1 + xp_90_0 + xp_89_0 + xp_86_0 + xp_85_2 + xp_85_1 + xp_77_1
 + xp_77_0 + xp_68_2 + xp_68_1 + xp_68_0 + xp_65_0 + xp_58_2 + xp_58_1
 + xp_51_0 + xp_42_1 + xp_42_0 + xp_38_1 + xp_38_0 + xp_36_0 + xp_32_1
 + xp_28_0 + xp_26_1 + xp_24_2 + xp_24_1 + xp_19_1 + xp_12_0 + xp_11_1
 + xp_0_0 <= 35516.1437016826
 r_16: + xp_128_0 + xp_123_0 + xp_108_2 + xp_108_0 + xp_78_2 + xp_78_1
 + xp_78_0 + xp_73_0 + xp_67_0 + xp_57_0 + xp_46_0 + xp_44_1 + xp_44_0
 + xp_40_0 + xp_22_0 + xp_18_0 + xp_13_0 + xp_6_0 <= 39327.3986152324
 r_17: + xp_129_1 + xp_128_1 + xp_126_0 + xp_119_1 + xp_112_1 + xp_111_1
 + xp_109_0 + xp_97_0 + xp_95_0 + xp_91_1 + xp_90_2 + xp_81_3 + xp_81_1
 + xp_80_1 + xp_79_1 + xp_63_1 + xp_62_0 + xp_61_0 + xp_60_1 + xp_47_0
 + xp_45_1 + xp_40_1 + xp_22_1 + xp_18_2 + xp_17_1 + xp_13_1 + xp_9_0
 + xp_1_0 <= 34767.401189227
 r_18: + xp_126_1 + xp_126_0 + xp_106_0 + xp_99_0 + xp_98_0 + xp_94_1
 + xp_92_0 + xp_85_0 + xp_68_0 + xp_58_0 + xp_48_0 + xp_32_0 + xp_30_0
 + xp_26_0 + xp_24_0 + xp_5_0 + xp_2_0 <= 36088.8175494917
 r_19: + xp_131_1 + xp_125_1 + xp_116_1 + xp_115_1 + xp_110_0 + xp_108_2
 + xp_106_2 + xp_106_1 + xp_99_1 + xp_98_2 + xp_94_2 + xp_78_0 + xp_56_0
 + xp_42_2 + xp_28_1 + xp_26_2 + xp_24_3 + xp_19_0 + xp_14_0 + xp_12_1
 + xp_11_0 + xp_3_0 + xp_2_1 <= 36088.8175494917
 r_20: + xp_129_0 + xp_128_2 + xp_123_1 + xp_119_2 + xp_119_0 + xp_112_0
 + xp_111_0 + xp_108_1 + xp_108_0 + xp_107_0 + xp_95_2 + xp_95_1
 + xp_91_2 + xp_91_0 + xp_81_2 + xp_81_0 + xp_80_0 + xp_79_0 + xp_78_3
 + xp_78_1 + xp_69_0 + xp_64_0 + xp_63_0 + xp_60_0 + xp_50_0 + xp_49_0
 + xp_45_0 + xp_40_2 + xp_18_3 + xp_18_1 + xp_17_0 + xp_14_1 + xp_13_2
 + xp_10_0 + xp_9_1 + xp_4_0 <= 34767.401189227
 r_21: + xp_126_3 + xp_124_1 + xp_113_0 + xp_106_2 + xp_105_1 + xp_99_2
 + xp_99_1 + xp_98_3 + xp_94_3 + xp_92_2 + xp_86_0 + xp_85_2 + xp_83_1
 + xp_77_1 + xp_77_0 + xp_68_2 + xp_65_0 + xp_58_1 + xp_41_1 + xp_38_1
 + xp_38_0 + xp_30_2 + xp_26_2 + xp_24_3 + xp_20_0 + xp_2_1 + xp_0_0
 <= 35421.6335540839
 r_22: + xp_126_2 + xp_124_0 + xp_106_1 + xp_105_0 + xp_98_2 + xp_98_1
 + xp_94_2 + xp_94_0 + xp_92_1 + xp_85_1 + xp_83_0 + xp_68_1 + xp_58_2
 + xp_41_0 + xp_32_1 + xp_30_1 + xp_26_1 + xp_24_2 + xp_24_1
 <= 35421.6335540839
 r_23: + xp_128_2 + xp_128_1 + xp_128_0 + xp_119_2 + xp_119_1 + xp_117_0
 + xp_112_1 + xp_111_1 + xp_104_1 + xp_104_0 + xp_100_0 + xp_95_2
 + xp_95_0 + xp_91_1 + xp_91_0 + xp_84_0 + xp_82_1 + xp_82_0 + xp_81_3
 + xp_81_2 + xp_81_1 + xp_80_1 + xp_80_0 + xp_79_1 + xp_79_0 + xp_78_2
 + xp_73_0 + xp_60_1 + xp_60_0 + xp_53_1 + xp_50_1 + xp_46_0 + xp_45_1
 + xp_44_1 + xp_44_0 + xp_40_2 + xp_40_1 + xp_40_0 + xp_34_1 + xp_21_0
 + xp_18_3 + xp_18_2 + xp_18_0 + xp_15_0 + xp_9_1 + xp_9_0 + xp_3_2
 + xp_3_1 <= 35421.6335540839
 r_24: + xp_128_0 + xp_126_1 + xp_103_0 + xp_94_2 + xp_94_1 + xp_90_1
 + xp_74_1 + xp_61_1 + xp_40_0 + xp_39_0 + xp_38_1 + xp_22_0 + xp_18_0
 + xp_13_0 + xp_12_1 + xp_1_1 <= 39327.3986152324
 r_25: + xp_131_0 + xp_127_0 + xp_126_3 + xp_126_2 + xp_126_0 + xp_120_2
 + xp_94_3 + xp_94_0 + xp_90_2 + xp_90_0 + xp_89_0 + xp_77_0 + xp_74_0
 + xp_61_0 + xp_42_0 + xp_38_0 + xp_32_1 + xp_24_1 + xp_12_0 + xp_1_0
 <= 39327.3986152324
 r_26: + xp_128_2 + xp_128_1 + xp_123_1 + xp_121_0 + xp_112_1 + xp_112_0
 + xp_108_1 + xp_107_0 + xp_81_3 + xp_81_2 + xp_81_1 + xp_81_0 + xp_79_1
 + xp_79_0 + xp_78_3 + xp_67_1 + xp_64_0 + xp_60_1 + xp_60_0 + xp_57_1
 + xp_47_0 + xp_40_2 + xp_40_1 + xp_37_0 + xp_29_0 + xp_25_0 + xp_22_1
 + xp_18_3 + xp_18_2 + xp_18_1 + xp_17_1 + xp_17_0 + xp_13_2 + xp_13_1
 + xp_4_0 <= 34767.401189227
 r_27: + xp_131_2 + xp_127_1 + xp_125_0 + xp_120_1 + xp_116_0 + xp_115_0
 + xp_108_0 + xp_99_2 + xp_98_3 + xp_98_1 + xp_96_1 + xp_92_2 + xp_92_1
 + xp_86_0 + xp_85_2 + xp_85_1 + xp_78_1 + xp_77_1 + xp_74_1 + xp_72_0
 + xp_67_0 + xp_65_0 + xp_58_2 + xp_58_1 + xp_57_0 + xp_52_0 + xp_50_0
 + xp_42_1 + xp_38_1 + xp_28_0 + xp_26_1 + xp_24_2 + xp_23_0 + xp_19_1
 + xp_14_1 + xp_11_1 <= 34767.401189227
 r_28: + xp_131_1 + xp_126_1 + xp_126_0 + xp_125_1 + xp_120_0 + xp_116_1
 + xp_115_1 + xp_109_0 + xp_99_1 + xp_99_0 + xp_98_2 + xp_98_0 + xp_96_0
 + xp_94_2 + xp_94_1 + xp_92_0 + xp_90_2 + xp_90_1 + xp_85_0 + xp_75_0
 + xp_58_0 + xp_54_0 + xp_48_0 + xp_42_2 + xp_32_0 + xp_28_1 + xp_26_2
 + xp_26_0 + xp_24_3 + xp_24_0 + xp_19_0 + xp_12_1 + xp_11_0
 <= 34767.401189227
 r_29: + xp_129_1 + xp_129_0 + xp_95_2 + xp_95_1 + xp_95_0 + xp_93_0
 + xp_87_0 + xp_71_0 + xp_62_0 + xp_49_0 + xp_45_1 + xp_45_0 + xp_10_0
 + xp_9_1 + xp_9_0 + xp_1_1 + xp_1_0 <= 34767.401189227
 r_30: + xp_125_1 + xp_125_0 + xp_121_0 + xp_102_0 + xp_99_2 + xp_99_1
 + xp_99_0 + xp_96_1 + xp_96_0 + xp_92_2 + xp_92_1 + xp_92_0 + xp_57_1
 + xp_57_0 + xp_37_0 + xp_26_2 + xp_26_1 + xp_26_0 + xp_23_0 + xp_11_1
 + xp_11_0 <= 34767.401189227

Bounds
 0 <= xp_0_0 <= 232.413296410132
 0 <= xp_1_0 <= 89.9140825497297
 0 <= xp_1_1 <= 89.9140825497297
 0 <= xp_2_0 <= 14.1606565026424
 0 <= xp_2_1 <= 99.1245955184971
 0 <= xp_3_0 <= 67.3381820394997
 0 <= xp_3_1 <= 89.784242719333
 0 <= xp_3_2 <= 22.4460606798332
 0 <= xp_4_0 <= 777.02646500918
 0 <= xp_5_0 <= 1067.08864611546
 0 <= xp_6_0 <= 1764.97773449783
 0 <= xp_7_0 <= 628.684458780926
 0 <= xp_8_0 <= 1487.05557753365
 0 <= xp_9_0 <= 53.2992503778542
 0 <= xp_9_1 <= 53.2992503778542
 0 <= xp_10_0 <= 54.0133694450362
 0 <= xp_11_0 <= 20.4497732874836
 0 <= xp_11_1 <= 20.4497732874836
 0 <= xp_12_0 <= 1527.06247527464
 0 <= xp_12_1 <= 509.020825091547
 0 <= xp_13_0 <= 62.0472089508333
 0 <= xp_13_1 <= 93.07081342625
 0 <= xp_13_2 <= 93.07081342625
 0 <= xp_14_0 <= 81.2391588813487
 0 <= xp_14_1 <= 135.398598135581
 0 <= xp_15_0 <= 499.493827536188
 0 <= xp_16_0 <= 2601.27608208312
 0 <= xp_17_0 <= 182.871286124382
 0 <= xp_17_1 <= 109.722771674629
 0 <= xp_18_0 <= 132.607041782052
 0 <= xp_18_1 <= 132.607041782052
 0 <= xp_18_2 <= 44.2023472606839
 0 <= xp_18_3 <= 44.2023472606839
 0 <= xp_19_0 <= 521.371838958035
 0 <= xp_19_1 <= 521.371838958035
 0 <= xp_20_0 <= 126.33415497601
 0 <= xp_21_0 <= 270.391446801173
 0 <= xp_22_0 <= 455.129180487508
 0 <= xp_22_1 <= 758.548634145847
 0 <= xp_23_0 <= 51.2218130915066
 0 <= xp_24_0 <= 167.785520830163
 0 <= xp_24_1 <= 83.8927604150817
 0 <= xp_24_2 <= 41.9463802075408
 0 <= xp_24_3 <= 41.9463802075408
 0 <= xp_25_0 <= 570.191615187203
 0 <= xp_26_0 <= 7.56317012060903
 0 <= xp_26_1 <= 5.67237759045677
 0 <= xp_26_2 <= 1.89079253015226
 0 <= xp_27_0 <= 291.295659495045
 0 <= xp_27_1 <= 41.6136656421493
 0 <= xp_28_0 <= 411.024213099622
 0 <= xp_28_1 <= 246.614527859773
 0 <= xp_29_0 <= 2411.7748496191
 0 <= xp_30_0 <= 45.1680309992595
 0 <= xp_30_1 <= 112.920077498149
 0 <= xp_30_2 <= 22.5840154996297
 0 <= xp_31_0 <= 187.813314668858
 0 <= xp_32_0 <= 1940.85389975959
 0 <= xp_32_1 <= 277.264842822799
 0 <= xp_33_0 <= 7941.45846646988
 0 <= xp_34_0 <= 62.9236278060112
 0 <= xp_34_1 <= 440.465394642078
 0 <= xp_35_0 <= 257.212704015905
 0 <= xp_36_0 <= 314.277309475264
 0 <= xp_37_0 <= 359.526490368522
 0 <= xp_38_0 <= 288.682632908311
 0 <= xp_38_1 <= 41.2403761297587
 0 <= xp_39_0 <= 1550.41741476725
 0 <= xp_40_0 <= 209.188196747918
 0 <= xp_40_1 <= 313.782295121877
 0 <= xp_40_2 <= 313.782295121877
 0 <= xp_41_0 <= 59.0608928517087
 0 <= xp_41_1 <= 19.6869642839029
 0 <= xp_42_0 <= 223.77894768875
 0 <= xp_42_1 <= 111.889473844375
 0 <= xp_42_2 <= 111.889473844375
 0 <= xp_43_0 <= 484.886846616557
 0 <= xp_44_0 <= 395.419088483816
 0 <= xp_44_1 <= 56.4884412119737
 0 <= xp_45_0 <= 26.2114157613382
 0 <= xp_45_1 <= 15.7268494568029
 0 <= xp_46_0 <= 1582.16325329925
 0 <= xp_47_0 <= 866.161508576529
 0 <= xp_48_0 <= 2864.20173863648
 0 <= xp_49_0 <= 86.7979266202083
 0 <= xp_50_0 <= 386.468255175842
 0 <= xp_50_1 <= 386.468255175842
 0 <= xp_51_0 <= 699.252406601544
 0 <= xp_52_0 <= 652.769747319517
 0 <= xp_53_0 <= 116.977572198046
 0 <= xp_53_1 <= 70.1865433188278
 0 <= xp_54_0 <= 3639.86488542649
 0 <= xp_55_0 <= 1167.97419433371
 0 <= xp_56_0 <= 94.3935566984165
 0 <= xp_57_0 <= 101.534747370236
 0 <= xp_57_1 <= 101.534747370236
 0 <= xp_58_0 <= 3360.38465049755
 0 <= xp_58_1 <= 560.064108416258
 0 <= xp_58_2 <= 560.064108416258
 0 <= xp_59_0 <= 10489.8248176663
 0 <= xp_60_0 <= 417.516204619458
 0 <= xp_60_1 <= 250.509722771675
 0 <= xp_61_0 <= 1490.60182790136
 0 <= xp_61_1 <= 894.361096740817
 0 <= xp_62_0 <= 129.320471075135
 0 <= xp_63_0 <= 113.66665652293
 0 <= xp_63_1 <= 16.23809378899
 0 <= xp_64_0 <= 979.966119919256
 0 <= xp_65_0 <= 514.814927523001
 0 <= xp_66_0 <= 1655.6525973038
 0 <= xp_67_0 <= 199.369059574166
 0 <= xp_67_1 <= 199.369059574166
 0 <= xp_68_0 <= 362.999705831634
 0 <= xp_68_1 <= 725.999411663268
 0 <= xp_68_2 <= 362.999705831634
 0 <= xp_69_0 <= 1693.69566761003
 0 <= xp_70_0 <= 622.517066837081
 0 <= xp_71_0 <= 69.8538287534362
 0 <= xp_72_0 <= 590.381708813893
 0 <= xp_73_0 <= 909.657851759431
 0 <= xp_74_0 <= 822.024081231044
 0 <= xp_74_1 <= 117.432011604435
 0 <= xp_75_0 <= 1738.4904090969
 0 <= xp_76_0 <= 1697.20134303075
 0 <= xp_77_0 <= 352.433989633101
 0 <= xp_77_1 <= 211.460393779861
 0 <= xp_78_0 <= 3448.61893024152
 0 <= xp_78_1 <= 6897.23786048304
 0 <= xp_78_2 <= 13794.4757209661
 0 <= xp_78_3 <= 3448.61893024152
 0 <= xp_79_0 <= 656.421492549425
 0 <= xp_79_1 <= 393.852895529655
 0 <= xp_80_0 <= 138.928618524492
 0 <= xp_80_1 <= 83.3571711146952
 0 <= xp_81_0 <= 96.4547640059645
 0 <= xp_81_1 <= 64.3031760039763
 0 <= xp_81_2 <= 64.3031760039763
 0 <= xp_81_3 <= 32.1515880019882
 0 <= xp_82_0 <= 135.43917308258
 0 <= xp_82_1 <= 81.2635038495481
 0 <= xp_83_0 <= 372.575393323392
 0 <= xp_83_1 <= 124.191797774464
 0 <= xp_84_0 <= 877.522493736242
 0 <= xp_85_0 <= 100.739478409056
 0 <= xp_85_1 <= 151.109217613584
 0 <= xp_85_2 <= 151.109217613584
 0 <= xp_86_0 <= 169.051459176531
 0 <= xp_87_0 <= 139.318138015682
 0 <= xp_88_0 <= 262.073582666383
 0 <= xp_88_1 <= 157.24414959983
 0 <= xp_89_0 <= 2190.0084193015
 0 <= xp_90_0 <= 13376.4645019932
 0 <= xp_90_1 <= 5350.5858007973
 0 <= xp_90_2 <= 2675.29290039865
 0 <= xp_91_0 <= 1006.39664039439
 0 <= xp_91_1 <= 1341.86218719252
 0 <= xp_91_2 <= 335.465546798129
 0 <= xp_92_0 <= 49.4689753811509
 0 <= xp_92_1 <= 8.24482923019182
 0 <= xp_92_2 <= 8.24482923019182
 0 <= xp_93_0 <= 128.671271923151
 0 <= xp_94_0 <= 116.920767272248
 0 <= xp_94_1 <= 29.2301918180619
 0 <= xp_94_2 <= 29.2301918180619
 0 <= xp_94_3 <= 58.4603836361239
 0 <= xp_95_0 <= 30.2526804824361
 0 <= xp_95_1 <= 15.1263402412181
 0 <= xp_95_2 <= 15.1263402412181
 0 <= xp_96_0 <= 85.4021484434436
 0 <= xp_96_1 <= 28.4673828144812
 0 <= xp_97_0 <= 520.39804023006
 0 <= xp_98_0 <= 52.9259608654636
 0 <= xp_98_1 <= 52.9259608654636
 0 <= xp_98_2 <= 17.6419869551545
 0 <= xp_98_3 <= 17.6419869551545
 0 <= xp_99_0 <= 2.02063236054898
 0 <= xp_99_1 <= 6.06189708164694
 0 <= xp_99_2 <= 8.08252944219591
 0 <= xp_100_0 <= 496.572431352261
 0 <= xp_101_0 <= 246.695677753771
 0 <= xp_102_0 <= 74.0087033261313
 0 <= xp_103_0 <= 1421.48646318331
 0 <= xp_104_0 <= 81.3933436799448
 0 <= xp_104_1 <= 48.8360062079669
 0 <= xp_105_0 <= 1252.54861385837
 0 <= xp_105_1 <= 178.935516265482
 0 <= xp_106_0 <= 15.3373299656127
 0 <= xp_106_1 <= 15.3373299656127
 0 <= xp_106_2 <= 10.2248866437418
 0 <= xp_107_0 <= 444.052219956788
 0 <= xp_108_0 <= 104.788858119554
 0 <= xp_108_1 <= 628.733148717324
 0 <= xp_108_2 <= 104.788858119554
 0 <= xp_109_0 <= 596.532870778938
 0 <= xp_109_1 <= 357.919722467363
 0 <= xp_110_0 <= 131.527748191879
 0 <= xp_111_0 <= 2526.9103192234
 0 <= xp_111_1 <= 360.987188460485
 0 <= xp_112_0 <= 3466.57740178327
 0 <= xp_112_1 <= 1155.52580059442
 0 <= xp_113_0 <= 420.031851333394
 0 <= xp_114_0 <= 2367.49946745382
 0 <= xp_115_0 <= 136.331821916558
 0 <= xp_115_1 <= 81.7990931499346
 0 <= xp_116_0 <= 98.5565462605114
 0 <= xp_116_1 <= 59.1339277563069
 0 <= xp_117_0 <= 1918.70809368755
 0 <= xp_118_0 <= 3114.85753121735
 0 <= xp_119_0 <= 30.9992595072173
 0 <= xp_119_1 <= 15.4996297536086
 0 <= xp_119_2 <= 15.4996297536086
 0 <= xp_120_0 <= 1606.67052128663
 0 <= xp_120_1 <= 267.778420214439
 0 <= xp_120_2 <= 267.778420214439
 0 <= xp_121_0 <= 74.5929825629165
 0 <= xp_122_0 <= 2246.03430611769
 0 <= xp_123_0 <= 443.930495115791
 0 <= xp_123_1 <= 63.4186421593987
 0 <= xp_124_0 <= 118.949514622197
 0 <= xp_124_1 <= 16.9927878031709
 0 <= xp_125_0 <= 16.8386030045748
 0 <= xp_125_1 <= 10.1031618027449
 0 <= xp_126_0 <= 3132.31287341631
 0 <= xp_126_1 <= 9396.93862024893
 0 <= xp_126_2 <= 9396.93862024893
 0 <= xp_126_3 <= 3132.31287341631
 0 <= xp_127_0 <= 213.578406013207
 0 <= xp_127_1 <= 355.964010022012
 0 <= xp_128_0 <= 100.252579045069
 0 <= xp_128_1 <= 100.252579045069
 0 <= xp_128_2 <= 200.505158090137
 0 <= xp_129_0 <= 30.2283355142367
 0 <= xp_129_1 <= 18.137001308542
 0 <= xp_130_0 <= 398.543359402737
 0 <= xp_131_0 <= 284.276193664222
 0 <= xp_131_1 <= 284.276193664222
 0 <= xp_131_2 <= 189.517462442815

End
